
# 5623	0.35	 0.2
# 4936	0.13	 0.2
# 14694	0.13	 0.2
# 5206	0.14	 0.2
param k := 4; 	param k := 4; 	0.00	0.00	0.01	 0.0
# 11180	1.87	0.24	# 6843	1.85	0.24	# 1722	1.84	0.24	 0.3
# 27796	1.86	0.23	 0.3
# 17810	2.36	0.25	0.00	 0.3
